============================[ Problem Statistics ]=============================|                                                                             ||  Number of variables:          4242                                         ||  Number of clauses:           10498                                         ||  Parse time:                   0.88 s                                       ||                                                                             |============================[ Search Statistics ]==============================| Conflicts |          ORIGINAL         |          LEARNT          | Progress ||           |    Vars  Clauses Literals |    Limit  Clauses Lit/Cl |          |===============================================================================|       100 |    1591     6703  1411874 |     2457      100     53 | 62.501 % ||       250 |    1591     6703  1411874 |     2703      250     75 | 62.495 % ||       475 |    1591     6703  1411874 |     2973      475     85 | 62.495 % |===============================================================================restarts              : 4conflicts             : 475            (361 /sec)decisions             : 834            (0.00 % random) (633 /sec)propagations          : 13795          (10475 /sec)conflict literals     : 40561          (94.43 % deleted)CPU time              : 1.317 sSATISFIABLE